RT is False
Default write of storage_offers_DA.csv just to have a file (but constraint should be inactive)
Reading model...
...model read.
creating competitive generators file...
...competitive generators recorded.
Loading data...
.. day-ahead data read.
Compiling instance...
...instance created.
Creating Offer Mitigation (model will solve as dispatch if TRUE)...
NOTE: storage offers will not be mitigated
...storage offer mitigation file created
Converting model to MPEC...
...converted
NOTE: initial MIP solve with only storage competitive to get feasible solution
Solving...

Welcome to IBM(R) ILOG(R) CPLEX(R) Interactive Optimizer 12.9.0.0
  with Simplex, Mixed Integer & Barrier Optimizers
5725-A06 5725-A29 5724-Y48 5724-Y49 5724-Y54 5724-Y55 5655-Y21
Copyright IBM Corp. 1988, 2019.  All Rights Reserved.

Type 'help' for a list of available commands.
Type 'help' followed by a command name for more
information on commands.

CPLEX> Logfile 'cplex.log' closed.
Logfile 'C:\Users\Luke\Desktop\test919\logs\tmpcdludcaq.cplex.log' open.
CPLEX> New value for parallel optimization mode: -1
CPLEX> New value for mixed integer optimality gap tolerance: 0.01
CPLEX> New value for integrality tolerance: 1e-09
CPLEX> New value for feasibility tolerance: 0.01
CPLEX> New value for deterministic time limit in ticks: 75000
CPLEX> Problem 'C:\Users\Luke\Desktop\test919\logs\tmp0hhhggp1.pyomo.lp' read.
Read time = 0.19 sec. (14.73 ticks)
CPLEX> Problem name         : C:\Users\Luke\Desktop\test919\logs\tmp0hhhggp1.pyomo.lp
Objective sense      : Maximize
Variables            :   53805  [Nneg: 1,  Box: 22000,  Free: 4464,
                                 Binary: 27340]
Objective nonzeros   :    9028
Linear constraints   :  123205  [Less: 41346,  Greater: 59096,  Equal: 22763]
  Nonzeros           :  291849
  RHS nonzeros       :   67539

Variables            : Min LB: -5000.000        Max UB: 1000000.       
Objective nonzeros   : Min   : 0.1000000        Max   : 722.0000       
Linear constraints   :
  Nonzeros           : Min   : 0.1000000        Max   : 1000000.       
  RHS nonzeros       : Min   : 0.1000000        Max   : 1000000.       
CPLEX> CPXPARAM_Parallel                                -1
CPXPARAM_Simplex_Tolerances_Feasibility          0.01
CPXPARAM_DetTimeLimit                            75000
CPXPARAM_MIP_Tolerances_MIPGap                   0.01
CPXPARAM_MIP_Tolerances_Integrality              1.0000000000000001e-09
Tried aggregator 3 times.
MIP Presolve eliminated 88423 rows and 18766 columns.
MIP Presolve added 3448 rows and 0 columns.
MIP Presolve modified 24930 coefficients.
Aggregator did 13002 substitutions.
Reduced MIP has 25228 rows, 21524 columns, and 71890 nonzeros.
Reduced MIP has 8501 binaries, 0 generals, 0 SOSs, and 0 indicators.
Presolve time = 0.23 sec. (176.56 ticks)
Probing fixed 431 vars, tightened 2926 bounds.
Probing time = 1.48 sec. (917.01 ticks)
Tried aggregator 2 times.
MIP Presolve eliminated 968 rows and 862 columns.
MIP Presolve modified 2240 coefficients.
Aggregator did 46 substitutions.
Reduced MIP has 24214 rows, 20616 columns, and 68954 nonzeros.
Reduced MIP has 8070 binaries, 0 generals, 0 SOSs, and 0 indicators.
Presolve time = 0.09 sec. (71.76 ticks)
Probing fixed 0 vars, tightened 1 bounds.
Probing time = 0.05 sec. (21.42 ticks)
Clique table members: 6345.
MIP emphasis: balance optimality and feasibility.
MIP search method: dynamic search.
Parallel mode: opportunistic, using up to 24 threads.
Root relaxation solution time = 0.33 sec. (278.19 ticks)

        Nodes                                         Cuts/
   Node  Left     Objective  IInf  Best Integer    Best Bound    ItCnt     Gap

      0     0     3821.4146  2099                   3821.4146     5968         
      0     0     3821.4145    39                    Cuts: 29     5980         
      0     0     3821.4145    38                    Cuts: 38     5985         
      0    12    infeasible                         3821.2965     6128         
Elapsed time = 8.55 sec. (5523.58 ticks, tree = 0.02 MB, solutions = 0)
    297    65     3766.5557    28                   3811.2896     7988         
    681   226     3773.9764    21                   3811.2896    15845         
*   788   286      integral     0    -1142.8295     3811.2896    16680  433.50%
*  1183   580      integral     0     3447.9441     3811.2896    19519   10.54%
   1734   346     3764.4664     8     3447.9441     3811.2896    21355   10.54%
   2297   529        cutoff           3447.9441     3811.2896    23164   10.54%
   2706   692        cutoff           3447.9441     3811.2896    23756   10.54%
   3173   951        cutoff           3447.9441     3811.2896    29388   10.54%
*  3271   908      integral     0     3746.5504     3811.2896    29278    1.73%
   3629  1193     3746.5413    13     3746.5504     3811.2896    30965    1.73%
   4944   859        cutoff           3746.5504     3806.4166    35637    1.60%
Elapsed time = 15.95 sec. (8392.30 ticks, tree = 6.02 MB, solutions = 5)
   5577  1208     3752.3717     4     3746.5504     3806.4166    37301    1.60%
   6073  1395     3805.9949     4     3746.5504     3806.4166    38442    1.60%
   6452  1443        cutoff           3746.5504     3806.4166    38812    1.60%
   6775  1449        cutoff           3746.5504     3806.4166    38881    1.60%
   7061  1519     3805.8071     3     3746.5504     3806.4166    39432    1.60%
   7315  1531     3785.4120     2     3746.5504     3806.4166    39479    1.60%
   7319  1644        cutoff           3746.5504     3791.7776    44492    1.21%
  10000   652        cutoff           3746.5504     3790.6429    57745    1.18%

GUB cover cuts applied:  4
Clique cuts applied:  15
Cover cuts applied:  1
Implied bound cuts applied:  48
Flow cuts applied:  45
Mixed integer rounding cuts applied:  24
Zero-half cuts applied:  1
Gomory fractional cuts applied:  25

Root node processing (before b&c):
  Real time             =    8.24 sec. (5514.71 ticks)
Parallel b&c, 24 threads:
  Real time             =   22.17 sec. (12990.83 ticks)
  Sync time (average)   =    0.82 sec.
  Wait time (average)   =    0.03 sec.
                          ------------
Total (root+branch&cut) =   30.41 sec. (18505.55 ticks)

Solution pool: 5 solutions saved.

MIP - Integer optimal, tolerance (0.01/1e-06):  Objective =  3.7465503862e+03
Current MIP best bound =  3.7810775885e+03 (gap = 34.5272, 0.92%)
Solution time =   30.41 sec.  Iterations = 90618  Nodes = 12138 (1156)
Deterministic time = 18505.70 ticks  (608.60 ticks/sec)

CPLEX> Incumbent solution written to file 'C:\Users\Luke\Desktop\test919\logs\tmpkg29lzoq.cplex.sol'.
CPLEX> NOTE: no warmstart specified for MIP iteration, default behavior is true
NOTE: resolving with all competitive generators using storage-only solution to warmstart
Solving...

Welcome to IBM(R) ILOG(R) CPLEX(R) Interactive Optimizer 12.9.0.0
  with Simplex, Mixed Integer & Barrier Optimizers
5725-A06 5725-A29 5724-Y48 5724-Y49 5724-Y54 5724-Y55 5655-Y21
Copyright IBM Corp. 1988, 2019.  All Rights Reserved.

Type 'help' for a list of available commands.
Type 'help' followed by a command name for more
information on commands.

CPLEX> Logfile 'cplex.log' closed.
Logfile 'C:\Users\Luke\Desktop\test919\logs\tmp2c_aeat6.cplex.log' open.
CPLEX> New value for parallel optimization mode: -1
CPLEX> New value for mixed integer optimality gap tolerance: 0.01
CPLEX> New value for integrality tolerance: 1e-09
CPLEX> New value for feasibility tolerance: 0.01
CPLEX> New value for deterministic time limit in ticks: 75000
CPLEX> Problem 'C:\Users\Luke\Desktop\test919\logs\tmp0yvsonnz.pyomo.lp' read.
Read time = 0.20 sec. (14.75 ticks)
CPLEX> MIP start file 'C:\Users\Luke\Desktop\test919\logs\tmpek6ykzqr.cplex.mst' read.
CPLEX> Problem name         : C:\Users\Luke\Desktop\test919\logs\tmp0yvsonnz.pyomo.lp
Objective sense      : Maximize
Variables            :   54525  [Nneg: 1,  Box: 22720,  Free: 4464,
                                 Binary: 27340]
Objective nonzeros   :    9748
Linear constraints   :  123205  [Less: 41346,  Greater: 59096,  Equal: 22763]
  Nonzeros           :  291849
  RHS nonzeros       :   67539

Variables            : Min LB: -5000.000        Max UB: 1000000.       
Objective nonzeros   : Min   : 0.1000000        Max   : 722.0000       
Linear constraints   :
  Nonzeros           : Min   : 0.1000000        Max   : 1000000.       
  RHS nonzeros       : Min   : 0.1000000        Max   : 1000000.       
CPLEX> CPXPARAM_Parallel                                -1
CPXPARAM_Simplex_Tolerances_Feasibility          0.01
CPXPARAM_DetTimeLimit                            75000
CPXPARAM_MIP_Tolerances_MIPGap                   0.01
CPXPARAM_MIP_Tolerances_Integrality              1.0000000000000001e-09
Warning:  No solution found from 1 MIP starts.
Retaining values of one MIP start for possible repair.
Tried aggregator 3 times.
MIP Presolve eliminated 88423 rows and 19486 columns.
MIP Presolve added 3448 rows and 0 columns.
MIP Presolve modified 24930 coefficients.
Aggregator did 13002 substitutions.
Reduced MIP has 25228 rows, 21524 columns, and 71890 nonzeros.
Reduced MIP has 8501 binaries, 0 generals, 0 SOSs, and 0 indicators.
Presolve time = 0.25 sec. (176.93 ticks)
Probing fixed 431 vars, tightened 2926 bounds.
Probing time = 1.48 sec. (917.01 ticks)
Tried aggregator 2 times.
MIP Presolve eliminated 968 rows and 862 columns.
MIP Presolve modified 2240 coefficients.
Aggregator did 46 substitutions.
Reduced MIP has 24214 rows, 20616 columns, and 68954 nonzeros.
Reduced MIP has 8070 binaries, 0 generals, 0 SOSs, and 0 indicators.
Presolve time = 0.09 sec. (71.76 ticks)
Probing fixed 0 vars, tightened 1 bounds.
Probing time = 0.03 sec. (21.42 ticks)
Clique table members: 6345.
MIP emphasis: balance optimality and feasibility.
MIP search method: dynamic search.
Parallel mode: opportunistic, using up to 24 threads.
Root relaxation solution time = 0.33 sec. (278.19 ticks)

        Nodes                                         Cuts/
   Node  Left     Objective  IInf  Best Integer    Best Bound    ItCnt     Gap

      0     0     3821.4146  2099                   3821.4146     5968         
      0     0     3821.4145    39                    Cuts: 29     5980         
      0     0     3821.4145    38                    Cuts: 38     5985         
Repair heuristic found nothing.
      0    12    infeasible                         3821.2965     6041         
Elapsed time = 8.86 sec. (5651.72 ticks, tree = 0.02 MB, solutions = 0)
    345    70     3687.0472    23                   3812.1014     7478         
    690   349     3768.0608    19                   3812.1014    15340         
*   929+  375                         3330.1572     3812.1014            14.47%
   1490   364     3429.0639     2     3330.1572     3812.1014    17640   14.47%
   1859   614     3759.5934     3     3330.1572     3812.1014    18247   14.47%
   2231   815     3806.4166     4     3330.1572     3812.1014    19628   14.47%
   2652   844        cutoff           3330.1572     3806.4166    20310   14.30%
   2912  1093     3751.6890     2     3330.1572     3806.4166    21485   14.30%
   3137  1354     3806.4166     2     3330.1572     3806.4166    22857   14.30%
*  3269  1369      integral     0     3732.5160     3806.4166    22959    1.98%
Elapsed time = 13.95 sec. (7825.98 ticks, tree = 8.17 MB, solutions = 2)
   4028   882        cutoff           3732.5160     3806.4166    24755    1.98%
   4500  1113     3806.4166     1     3732.5160     3806.4166    26781    1.98%
   4843  1149        cutoff           3732.5160     3806.4166    27060    1.98%
   5136  1150     3806.4166     3     3732.5160     3806.4166    27109    1.98%
   5483  1205     3802.8522     2     3732.5160     3806.4166    27540    1.98%
   5925  1299     3768.9013     3     3732.5160     3806.4166    28207    1.98%
   6239  1437     3806.4166     1     3732.5160     3806.4166    29075    1.98%
   6491  1458     3805.8071     1     3732.5160     3806.4166    29265    1.98%
   6724  1478     3806.4166     1     3732.5160     3806.4166    29449    1.98%
   6911  1502     3805.8071     1     3732.5160     3806.4166    29610    1.98%
Elapsed time = 25.73 sec. (17385.78 ticks, tree = 9.97 MB, solutions = 2)
   7118  1515     3806.4166     3     3732.5160     3806.4166    29762    1.98%
   7289  1546     3759.9583     1     3732.5160     3806.4166    30060    1.98%
   7354  1614        cutoff           3732.5160     3792.8843    35763    1.62%
   9839   388     3761.0748    12     3732.5160     3792.0001    41509    1.59%
  13822  1648     3752.2554    14     3732.5160     3790.7976    66908    1.56%
  18435  4062     3756.5700     2     3732.5160     3790.0586   117993    1.54%
  23827  6512     3737.1592     9     3732.5160     3777.4821   193198    1.20%
  28982  6948     3737.1592    12     3732.5160     3772.7772   207362    1.08%

GUB cover cuts applied:  4
Clique cuts applied:  1
Cover cuts applied:  2
Implied bound cuts applied:  23
Flow cuts applied:  9
Mixed integer rounding cuts applied:  9
Gomory fractional cuts applied:  11

Root node processing (before b&c):
  Real time             =    8.53 sec. (5634.58 ticks)
Parallel b&c, 24 threads:
  Real time             =   34.38 sec. (22285.87 ticks)
  Sync time (average)   =    0.59 sec.
  Wait time (average)   =    0.03 sec.
                          ------------
Total (root+branch&cut) =   42.91 sec. (27920.45 ticks)

Solution pool: 2 solutions saved.

MIP - Integer optimal, tolerance (0.01/1e-06):  Objective =  3.7325159560e+03
Current MIP best bound =  3.7698407870e+03 (gap = 37.3248, 1.00%)
Solution time =   42.92 sec.  Iterations = 275967  Nodes = 30866 (8078)
Deterministic time = 27920.61 ticks  (650.50 ticks/sec)

CPLEX> Incumbent solution written to file 'C:\Users\Luke\Desktop\test919\logs\tmp3pkfal6c.cplex.sol'.
CPLEX> Exporting results... 
